500
1000
300
299
298
296
296
295
295
295
295
293
292
292
292
291
291
290
290
288
288
288
288
288
288
287
287
286
286
286
285
285
284
284
284
283
282
281
281
280
280
280
279
279
279
278
278
278
278
278
277
277
276
274
274
274
273
273
273
272
271
271
270
269
269
268
267
267
267
267
266
266
265
265
265
265
264
264
264
263
263
262
262
261
261
261
260
259
259
259
258
258
257
257
257
257
256
256
255
254
254
254
254
254
254
254
253
253
252
251
251
251
251
251
250
250
249
249
249
248
248
248
247
247
246
246
246
245
245
244
244
244
244
241
241
241
240
240
240
239
239
239
239
239
239
238
238
238
238
238
237
236
236
236
236
235
235
235
235
235
233
233
232
232
232
230
230
230
229
229
228
227
227
226
226
226
225
224
223
223
223
223
222
222
221
221
221
220
220
220
220
220
219
219
219
219
218
218
218
217
216
216
216
216
215
215
214
213
213
213
212
212
212
211
211
211
211
210
210
209
209
209
209
209
208
208
208
208
208
207
207
207
206
206
205
205
204
204
203
202
202
201
201
201
201
201
200
199
199
198
196
196
196
195
195
195
195
194
194
193
193
193
192
192
191
191
191
190
190
189
188
188
188
188
187
186
185
185
185
184
184
184
183
183
183
182
182
182
181
181
181
180
180
180
179
178
178
178
178
177
177
177
177
177
177
176
176
176
176
176
175
175
175
174
174
173
173
173
172
172
171
171
171
169
169
169
168
168
168
168
168
168
167
167
167
166
166
165
165
165
165
164
164
164
164
164
163
163
162
162
161
161
161
160
160
159
159
159
159
159
159
158
157
157
156
156
156
156
156
155
155
155
154
153
153
153
153
152
152
152
152
151
151
151
150
149
149
149
149
149
148
148
148
147
147
146
146
146
145
145
145
145
145
145
144
144
143
143
143
142
141
141
141
140
140
140
140
139
139
139
138
137
137
137
136
135
135
135
135
134
134
134
134
132
132
131
131
131
130
128
128
127
127
127
127
126
126
126
125
125
124
124
123
122
122
121
121
119
118
118
118
117
117
116
116
116
116
115
115
114
113
113
113
113
112
111
111
111
111
111
110
109
109
109
108
108
108
108
107
106
106
106
106
106
105
105
104
104
104
103
102
102
